============================[ Problem Statistics ]=============================|                                                                             ||  Number of variables:          4242                                         ||  Number of clauses:           10444                                         ||  Parse time:                   0.83 s                                       ||                                                                             |============================[ Search Statistics ]==============================| Conflicts |          ORIGINAL         |          LEARNT          | Progress ||           |    Vars  Clauses Literals |    Limit  Clauses Lit/Cl |          |===============================================================================|       100 |    1591     6649  1325960 |     2437      100     53 | 62.501 % ||       250 |    1591     6649  1325960 |     2681      250     75 | 62.495 % |===============================================================================restarts              : 4conflicts             : 448            (354 /sec)decisions             : 807            (0.00 % random) (638 /sec)propagations          : 13740          (10870 /sec)conflict literals     : 37922          (94.46 % deleted)CPU time              : 1.264 sSATISFIABLE